NAME : kroB100-C-3-1-a__cluster_same_priority_ls__25039.tour
COMMENT : Length = 25039.000
COMMENT : Generated by compare_sota_instances.py for cluster_same_priority_ls
TYPE : TOUR
DIMENSION : 100
TOUR_SECTION
22
23
88
47
81
79
65
37
72
38
20
80
30
75
69
26
100
56
62
5
67
40
39
70
53
73
85
10
68
49
86
21
46
90
1
95
3
11
93
28
91
97
76
99
8
29
59
32
98
12
71
27
9
25
34
7
58
54
52
84
57
94
61
35
66
87
74
60
89
43
50
55
77
24
18
96
92
19
44
41
36
45
17
78
16
2
13
63
31
48
51
15
6
4
83
14
64
33
82
42
-1
EOF
